proyfinal/src/viki/013/andrea/andrea-localstore/experimentInOfficeAgust.take6/worker_5/5578359a-dacb-4256-b5e1-023387473172.als.cnf.out
Reading from standard input... Use '--help' for help.
============================[ Problem Statistics ]=============================
|                                                                             |
|  Number of variables:         87638                                         |
|  Number of clauses:          161767                                         |
|  Parse time:                   0.04 s                                       |
|                                                                             |
============================[ Search Statistics ]==============================
| Conflicts |          ORIGINAL         |          LEARNT          | Progress |
|           |    Vars  Clauses Literals |    Limit  Clauses Lit/Cl |          |
===============================================================================
|       100 |   62549   105786   264428 |    38788      100     13 | 28.628 % |
|       250 |   62549   105786   264428 |    42667      250     70 | 28.628 % |
|       475 |   62549   105786   264428 |    46933      475     93 | 28.628 % |
|       812 |   62549   105786   264428 |    51627      812     92 | 28.628 % |
|      1318 |   62549   105786   264428 |    56789     1318    101 | 28.628 % |
|      2077 |   62545   105770   264384 |    62468     2004    110 | 28.633 % |
|      3216 |   62140   104590   261663 |    68715     1761     84 | 29.095 % |
===============================================================================
restarts              : 17
conflicts             : 3329           (6467 /sec)
decisions             : 11803          (0.00 % random) (22929 /sec)
propagations          : 4883501        (9486708 /sec)
conflict literals     : 350030         (48.68 % deleted)
Memory used           : 25.47 MB
CPU time              : 0.514773 s

UNSATISFIABLE
